(set-logic QF_NRA)
(set-info :source |Benchmarks generated from hycomp (https://es-static.fbk.eu/tools/hycomp/). BMC instances of non-linear hybrid automata taken from: Alessandro Cimatti, Sergio Mover, Stefano Tonetta, A quantifier-free SMT encoding of non-linear hybrid automata, FMCAD 2012 and Alessandro Cimatti, Sergio Mover, Stefano Tonetta, Quantier-free encoding of invariants for Hybrid Systems, Formal Methods in System Design. This instance solves a BMC problem of depth 2 and uses the quantifier free encoding encoding. Contacts: Sergio Mover (mover@fbk.eu), Stefano Tonetta (tonettas@fbk.eu), Alessandro Cimatti (cimatti@fbk.eu).|)
(set-info :smt-lib-version 2.0)
(set-info :category "industrial")
(set-info :status unsat)
;; MathSAT API call trace
;; generated on Mon Mar 19 10:50:17 2012
(declare-fun b.counter.3__AT1 () Bool)
(declare-fun b.EVENT.1__AT0 () Bool)
(declare-fun b.x__AT0 () Real)
(declare-fun b.event_is_timed__AT2 () Bool)
(declare-fun b.speed_x__AT1 () Real)
(declare-fun b.time__AT1 () Real)
(declare-fun g__AT0 () Real)
(declare-fun b.y__AT0 () Real)
(declare-fun b.EVENT.0__AT1 () Bool)
(declare-fun b.speed_y__AT1 () Real)
(declare-fun b.delta__AT1 () Real)
(declare-fun b.counter.0__AT0 () Bool)
(declare-fun b.EVENT.1__AT1 () Bool)
(declare-fun b.counter.1__AT0 () Bool)
(declare-fun b.delta__AT0 () Real)
(declare-fun b.time__AT2 () Real)
(declare-fun b.y__AT2 () Real)
(declare-fun b.EVENT.0__AT0 () Bool)
(declare-fun b.delta__AT2 () Real)
(declare-fun b.counter.0__AT2 () Bool)
(declare-fun b.x__AT2 () Real)
(declare-fun b.EVENT.0__AT2 () Bool)
(declare-fun b.x__AT1 () Real)
(declare-fun b.counter.1__AT2 () Bool)
(declare-fun b.EVENT.1__AT2 () Bool)
(declare-fun b.counter.2__AT2 () Bool)
(declare-fun b.counter.3__AT2 () Bool)
(declare-fun b.speed_y__AT0 () Real)
(declare-fun b.speed_x__AT2 () Real)
(declare-fun b.speed_y__AT2 () Real)
(declare-fun b.counter.3__AT0 () Bool)
(declare-fun b.event_is_timed__AT0 () Bool)
(declare-fun speed_loss__AT0 () Real)
(declare-fun b.y__AT1 () Real)
(declare-fun b.event_is_timed__AT1 () Bool)
(declare-fun b.counter.0__AT1 () Bool)
(declare-fun b.speed_x__AT0 () Real)
(declare-fun b.counter.1__AT1 () Bool)
(declare-fun b.time__AT0 () Real)
(declare-fun b.counter.2__AT0 () Bool)
(declare-fun b.counter.2__AT1 () Bool)
(assert (let ((.def_76 (* (- 1.0) g__AT0)))
(let ((.def_77 (* (/ 1 2) .def_76)))
(let ((.def_85 (* 2.0 .def_77)))
(let ((.def_91 (* (- 1.0) .def_85)))
(let ((.def_452 (* .def_91 b.delta__AT2)))
(let ((.def_453 (<= b.speed_y__AT2 .def_452)))
(let ((.def_451 (<= b.speed_y__AT2 0.0 )))
(let ((.def_454 (and .def_451 .def_453)))
(let ((.def_447 (* .def_85 b.delta__AT2)))
(let ((.def_448 (+ b.speed_y__AT2 .def_447)))
(let ((.def_449 (<= 0.0 .def_448)))
(let ((.def_446 (<= 0.0 b.speed_y__AT2)))
(let ((.def_450 (and .def_446 .def_449)))
(let ((.def_455 (or .def_450 .def_454)))
(let ((.def_441 (* b.speed_y__AT2 b.delta__AT2)))
(let ((.def_439 (* b.delta__AT2 b.delta__AT2)))
(let ((.def_440 (* .def_77 .def_439)))
(let ((.def_442 (+ .def_440 .def_441)))
(let ((.def_443 (+ b.y__AT2 .def_442)))
(let ((.def_444 (<= 0.0 .def_443)))
(let ((.def_427 (<= 0.0 b.y__AT2)))
(let ((.def_445 (and .def_427 .def_444)))
(let ((.def_456 (and .def_445 .def_455)))
(let ((.def_57 (<= g__AT0 10.0 )))
(let ((.def_56 (<= 8.0 g__AT0)))
(let ((.def_58 (and .def_56 .def_57)))
(let ((.def_457 (and .def_58 .def_456)))
(let ((.def_65 (<= speed_loss__AT0 (/ 1 2))))
(let ((.def_62 (<= (/ 1 10) speed_loss__AT0)))
(let ((.def_66 (and .def_62 .def_65)))
(let ((.def_458 (and .def_66 .def_457)))
(let ((.def_154 (not b.counter.0__AT1)))
(let ((.def_142 (not b.counter.1__AT1)))
(let ((.def_431 (and .def_142 .def_154)))
(let ((.def_434 (or b.counter.3__AT1 .def_431)))
(let ((.def_149 (not b.counter.2__AT1)))
(let ((.def_432 (and .def_149 .def_431)))
(let ((.def_164 (not b.counter.3__AT1)))
(let ((.def_433 (or .def_164 .def_432)))
(let ((.def_435 (and .def_433 .def_434)))
(let ((.def_67 (and .def_58 .def_66)))
(let ((.def_428 (and .def_67 .def_427)))
(let ((.def_424 (not b.EVENT.0__AT2)))
(let ((.def_422 (not b.EVENT.1__AT2)))
(let ((.def_425 (or .def_422 .def_424)))
(let ((.def_6 (not b.counter.0__AT2)))
(let ((.def_4 (not b.counter.1__AT2)))
(let ((.def_415 (or .def_4 .def_6)))
(let ((.def_419 (or b.counter.3__AT2 .def_415)))
(let ((.def_416 (or b.counter.2__AT2 .def_415)))
(let ((.def_9 (not b.counter.2__AT2)))
(let ((.def_414 (or .def_6 .def_9)))
(let ((.def_417 (and .def_414 .def_416)))
(let ((.def_12 (not b.counter.3__AT2)))
(let ((.def_418 (or .def_12 .def_417)))
(let ((.def_420 (and .def_418 .def_419)))
(let ((.def_426 (and .def_420 .def_425)))
(let ((.def_429 (and .def_426 .def_428)))
(let ((.def_409 (<= 0.0 b.delta__AT1)))
(let ((.def_252 (not b.EVENT.0__AT1)))
(let ((.def_250 (not b.EVENT.1__AT1)))
(let ((.def_312 (and .def_250 .def_252)))
(let ((.def_313 (not .def_312)))
(let ((.def_410 (or .def_313 .def_409)))
(let ((.def_411 (or b.EVENT.1__AT1 .def_410)))
(let ((.def_358 (= b.counter.0__AT2 b.counter.0__AT1)))
(let ((.def_356 (= b.counter.1__AT2 b.counter.1__AT1)))
(let ((.def_354 (= b.counter.2__AT2 b.counter.2__AT1)))
(let ((.def_353 (= b.counter.3__AT2 b.counter.3__AT1)))
(let ((.def_355 (and .def_353 .def_354)))
(let ((.def_357 (and .def_355 .def_356)))
(let ((.def_359 (and .def_357 .def_358)))
(let ((.def_406 (or .def_313 .def_359)))
(let ((.def_407 (or b.EVENT.1__AT1 .def_406)))
(let ((.def_366 (= b.x__AT1 b.x__AT2)))
(let ((.def_363 (= b.y__AT1 b.y__AT2)))
(let ((.def_400 (and .def_363 .def_366)))
(let ((.def_293 (= b.speed_x__AT1 b.speed_x__AT2)))
(let ((.def_401 (and .def_293 .def_400)))
(let ((.def_352 (= b.speed_y__AT1 b.speed_y__AT2)))
(let ((.def_402 (and .def_352 .def_401)))
(let ((.def_397 (= b.delta__AT1 0.0 )))
(let ((.def_398 (and .def_312 .def_397)))
(let ((.def_399 (not .def_398)))
(let ((.def_403 (or .def_399 .def_402)))
(let ((.def_404 (or b.EVENT.1__AT1 .def_403)))
(let ((.def_377 (= b.time__AT1 b.time__AT2)))
(let ((.def_389 (and .def_366 .def_377)))
(let ((.def_390 (and .def_363 .def_389)))
(let ((.def_391 (and .def_293 .def_390)))
(let ((.def_392 (and .def_352 .def_391)))
(let ((.def_393 (and .def_359 .def_392)))
(let ((.def_394 (or .def_250 .def_393)))
(let ((.def_380 (* (- 1.0) b.time__AT2)))
(let ((.def_383 (+ b.delta__AT1 .def_380)))
(let ((.def_384 (+ b.time__AT1 .def_383)))
(let ((.def_385 (= .def_384 0.0 )))
(let ((.def_386 (or .def_313 .def_385)))
(let ((.def_387 (or b.EVENT.1__AT1 .def_386)))
(let ((.def_378 (or .def_312 .def_377)))
(let ((.def_379 (or b.EVENT.1__AT1 .def_378)))
(let ((.def_388 (and .def_379 .def_387)))
(let ((.def_395 (and .def_388 .def_394)))
(let ((.def_373 (= .def_313 b.event_is_timed__AT2)))
(let ((.def_371 (= b.event_is_timed__AT1 .def_312)))
(let ((.def_374 (and .def_371 .def_373)))
(let ((.def_360 (and .def_352 .def_359)))
(let ((.def_272 (<= 0.0 b.speed_y__AT1)))
(let ((.def_316 (not .def_272)))
(let ((.def_315 (= b.y__AT1 0.0 )))
(let ((.def_317 (and .def_315 .def_316)))
(let ((.def_361 (or .def_317 .def_360)))
(let ((.def_329 (or .def_6 b.counter.0__AT1)))
(let ((.def_328 (or b.counter.0__AT2 .def_154)))
(let ((.def_330 (and .def_328 .def_329)))
(let ((.def_331 (and .def_4 .def_330)))
(let ((.def_332 (or b.counter.1__AT1 .def_331)))
(let ((.def_327 (or b.counter.1__AT2 .def_142)))
(let ((.def_333 (and .def_327 .def_332)))
(let ((.def_344 (and .def_9 .def_333)))
(let ((.def_345 (or b.counter.2__AT1 .def_344)))
(let ((.def_339 (and .def_4 .def_154)))
(let ((.def_340 (or b.counter.1__AT1 .def_339)))
(let ((.def_341 (and .def_327 .def_340)))
(let ((.def_342 (and b.counter.2__AT2 .def_341)))
(let ((.def_343 (or .def_149 .def_342)))
(let ((.def_346 (and .def_343 .def_345)))
(let ((.def_347 (and b.counter.3__AT2 .def_346)))
(let ((.def_348 (or b.counter.3__AT1 .def_347)))
(let ((.def_334 (and b.counter.2__AT2 .def_333)))
(let ((.def_335 (or b.counter.2__AT1 .def_334)))
(let ((.def_323 (or b.counter.1__AT2 b.counter.1__AT1)))
(let ((.def_321 (and .def_4 b.counter.0__AT2)))
(let ((.def_322 (or .def_142 .def_321)))
(let ((.def_324 (and .def_322 .def_323)))
(let ((.def_325 (and .def_9 .def_324)))
(let ((.def_326 (or .def_149 .def_325)))
(let ((.def_336 (and .def_326 .def_335)))
(let ((.def_337 (and .def_12 .def_336)))
(let ((.def_338 (or .def_164 .def_337)))
(let ((.def_349 (and .def_338 .def_348)))
(let ((.def_136 (* (- 1.0) speed_loss__AT0)))
(let ((.def_137 (+ 1.0 .def_136)))
(let ((.def_115 (* (- 1.0) b.speed_y__AT1)))
(let ((.def_319 (* .def_115 .def_137)))
(let ((.def_320 (= b.speed_y__AT2 .def_319)))
(let ((.def_350 (and .def_320 .def_349)))
(let ((.def_318 (not .def_317)))
(let ((.def_351 (or .def_318 .def_350)))
(let ((.def_362 (and .def_351 .def_361)))
(let ((.def_364 (and .def_362 .def_363)))
(let ((.def_365 (and .def_293 .def_364)))
(let ((.def_367 (and .def_365 .def_366)))
(let ((.def_368 (or .def_312 .def_367)))
(let ((.def_369 (or b.EVENT.1__AT1 .def_368)))
(let ((.def_303 (* (- 1.0) b.y__AT2)))
(let ((.def_267 (* b.speed_y__AT1 b.delta__AT1)))
(let ((.def_307 (+ .def_267 .def_303)))
(let ((.def_265 (* b.delta__AT1 b.delta__AT1)))
(let ((.def_266 (* .def_77 .def_265)))
(let ((.def_308 (+ .def_266 .def_307)))
(let ((.def_309 (+ b.y__AT1 .def_308)))
(let ((.def_310 (= .def_309 0.0 )))
(let ((.def_297 (* (- 1.0) b.speed_y__AT2)))
(let ((.def_295 (* .def_76 b.delta__AT1)))
(let ((.def_298 (+ .def_295 .def_297)))
(let ((.def_299 (+ b.speed_y__AT1 .def_298)))
(let ((.def_300 (= .def_299 0.0 )))
(let ((.def_288 (* (- 1.0) b.x__AT2)))
(let ((.def_286 (* b.speed_x__AT1 b.delta__AT1)))
(let ((.def_289 (+ .def_286 .def_288)))
(let ((.def_290 (+ b.x__AT1 .def_289)))
(let ((.def_291 (= .def_290 0.0 )))
(let ((.def_294 (and .def_291 .def_293)))
(let ((.def_301 (and .def_294 .def_300)))
(let ((.def_311 (and .def_301 .def_310)))
(let ((.def_314 (or .def_311 .def_313)))
(let ((.def_370 (and .def_314 .def_369)))
(let ((.def_375 (and .def_370 .def_374)))
(let ((.def_396 (and .def_375 .def_395)))
(let ((.def_405 (and .def_396 .def_404)))
(let ((.def_408 (and .def_405 .def_407)))
(let ((.def_412 (and .def_408 .def_411)))
(let ((.def_413 (and .def_250 .def_412)))
(let ((.def_430 (and .def_413 .def_429)))
(let ((.def_436 (and .def_430 .def_435)))
(let ((.def_278 (* .def_91 b.delta__AT1)))
(let ((.def_279 (<= b.speed_y__AT1 .def_278)))
(let ((.def_277 (<= b.speed_y__AT1 0.0 )))
(let ((.def_280 (and .def_277 .def_279)))
(let ((.def_273 (* .def_85 b.delta__AT1)))
(let ((.def_274 (+ b.speed_y__AT1 .def_273)))
(let ((.def_275 (<= 0.0 .def_274)))
(let ((.def_276 (and .def_272 .def_275)))
(let ((.def_281 (or .def_276 .def_280)))
(let ((.def_268 (+ .def_266 .def_267)))
(let ((.def_269 (+ b.y__AT1 .def_268)))
(let ((.def_270 (<= 0.0 .def_269)))
(let ((.def_255 (<= 0.0 b.y__AT1)))
(let ((.def_271 (and .def_255 .def_270)))
(let ((.def_282 (and .def_271 .def_281)))
(let ((.def_283 (and .def_58 .def_282)))
(let ((.def_284 (and .def_66 .def_283)))
(let ((.def_32 (not b.counter.0__AT0)))
(let ((.def_30 (not b.counter.1__AT0)))
(let ((.def_33 (and .def_30 .def_32)))
(let ((.def_260 (or .def_33 b.counter.3__AT0)))
(let ((.def_38 (not b.counter.3__AT0)))
(let ((.def_35 (not b.counter.2__AT0)))
(let ((.def_36 (and .def_33 .def_35)))
(let ((.def_259 (or .def_36 .def_38)))
(let ((.def_261 (and .def_259 .def_260)))
(let ((.def_256 (and .def_67 .def_255)))
(let ((.def_253 (or .def_250 .def_252)))
(let ((.def_243 (or .def_142 .def_154)))
(let ((.def_247 (or b.counter.3__AT1 .def_243)))
(let ((.def_244 (or b.counter.2__AT1 .def_243)))
(let ((.def_242 (or .def_149 .def_154)))
(let ((.def_245 (and .def_242 .def_244)))
(let ((.def_246 (or .def_164 .def_245)))
(let ((.def_248 (and .def_246 .def_247)))
(let ((.def_254 (and .def_248 .def_253)))
(let ((.def_257 (and .def_254 .def_256)))
(let ((.def_237 (<= 0.0 b.delta__AT0)))
(let ((.def_51 (not b.EVENT.0__AT0)))
(let ((.def_49 (not b.EVENT.1__AT0)))
(let ((.def_129 (and .def_49 .def_51)))
(let ((.def_130 (not .def_129)))
(let ((.def_238 (or .def_130 .def_237)))
(let ((.def_239 (or b.EVENT.1__AT0 .def_238)))
(let ((.def_186 (= b.counter.0__AT0 b.counter.0__AT1)))
(let ((.def_184 (= b.counter.1__AT0 b.counter.1__AT1)))
(let ((.def_182 (= b.counter.2__AT0 b.counter.2__AT1)))
(let ((.def_181 (= b.counter.3__AT0 b.counter.3__AT1)))
(let ((.def_183 (and .def_181 .def_182)))
(let ((.def_185 (and .def_183 .def_184)))
(let ((.def_187 (and .def_185 .def_186)))
(let ((.def_234 (or .def_130 .def_187)))
(let ((.def_235 (or b.EVENT.1__AT0 .def_234)))
(let ((.def_194 (= b.x__AT1 b.x__AT0)))
(let ((.def_191 (= b.y__AT0 b.y__AT1)))
(let ((.def_228 (and .def_191 .def_194)))
(let ((.def_111 (= b.speed_x__AT0 b.speed_x__AT1)))
(let ((.def_229 (and .def_111 .def_228)))
(let ((.def_180 (= b.speed_y__AT0 b.speed_y__AT1)))
(let ((.def_230 (and .def_180 .def_229)))
(let ((.def_225 (= b.delta__AT0 0.0 )))
(let ((.def_226 (and .def_129 .def_225)))
(let ((.def_227 (not .def_226)))
(let ((.def_231 (or .def_227 .def_230)))
(let ((.def_232 (or b.EVENT.1__AT0 .def_231)))
(let ((.def_205 (= b.time__AT0 b.time__AT1)))
(let ((.def_217 (and .def_194 .def_205)))
(let ((.def_218 (and .def_191 .def_217)))
(let ((.def_219 (and .def_111 .def_218)))
(let ((.def_220 (and .def_180 .def_219)))
(let ((.def_221 (and .def_187 .def_220)))
(let ((.def_222 (or .def_49 .def_221)))
(let ((.def_208 (* (- 1.0) b.time__AT1)))
(let ((.def_211 (+ b.delta__AT0 .def_208)))
(let ((.def_212 (+ b.time__AT0 .def_211)))
(let ((.def_213 (= .def_212 0.0 )))
(let ((.def_214 (or .def_130 .def_213)))
(let ((.def_215 (or b.EVENT.1__AT0 .def_214)))
(let ((.def_206 (or .def_129 .def_205)))
(let ((.def_207 (or b.EVENT.1__AT0 .def_206)))
(let ((.def_216 (and .def_207 .def_215)))
(let ((.def_223 (and .def_216 .def_222)))
(let ((.def_201 (= .def_130 b.event_is_timed__AT1)))
(let ((.def_199 (= b.event_is_timed__AT0 .def_129)))
(let ((.def_202 (and .def_199 .def_201)))
(let ((.def_188 (and .def_180 .def_187)))
(let ((.def_84 (<= 0.0 b.speed_y__AT0)))
(let ((.def_133 (not .def_84)))
(let ((.def_132 (= b.y__AT0 0.0 )))
(let ((.def_134 (and .def_132 .def_133)))
(let ((.def_189 (or .def_134 .def_188)))
(let ((.def_155 (or b.counter.0__AT0 .def_154)))
(let ((.def_153 (or .def_32 b.counter.0__AT1)))
(let ((.def_156 (and .def_153 .def_155)))
(let ((.def_157 (and .def_142 .def_156)))
(let ((.def_158 (or b.counter.1__AT0 .def_157)))
(let ((.def_152 (or .def_30 b.counter.1__AT1)))
(let ((.def_159 (and .def_152 .def_158)))
(let ((.def_172 (and .def_149 .def_159)))
(let ((.def_173 (or b.counter.2__AT0 .def_172)))
(let ((.def_167 (and .def_32 .def_142)))
(let ((.def_168 (or b.counter.1__AT0 .def_167)))
(let ((.def_169 (and .def_152 .def_168)))
(let ((.def_170 (and b.counter.2__AT1 .def_169)))
(let ((.def_171 (or .def_35 .def_170)))
(let ((.def_174 (and .def_171 .def_173)))
(let ((.def_175 (and b.counter.3__AT1 .def_174)))
(let ((.def_176 (or b.counter.3__AT0 .def_175)))
(let ((.def_160 (and b.counter.2__AT1 .def_159)))
(let ((.def_161 (or b.counter.2__AT0 .def_160)))
(let ((.def_146 (or b.counter.1__AT0 b.counter.1__AT1)))
(let ((.def_144 (and .def_142 b.counter.0__AT1)))
(let ((.def_145 (or .def_30 .def_144)))
(let ((.def_147 (and .def_145 .def_146)))
(let ((.def_150 (and .def_147 .def_149)))
(let ((.def_151 (or .def_35 .def_150)))
(let ((.def_162 (and .def_151 .def_161)))
(let ((.def_165 (and .def_162 .def_164)))
(let ((.def_166 (or .def_38 .def_165)))
(let ((.def_177 (and .def_166 .def_176)))
(let ((.def_138 (* (- 1.0) b.speed_y__AT0)))
(let ((.def_139 (* .def_137 .def_138)))
(let ((.def_140 (= b.speed_y__AT1 .def_139)))
(let ((.def_178 (and .def_140 .def_177)))
(let ((.def_135 (not .def_134)))
(let ((.def_179 (or .def_135 .def_178)))
(let ((.def_190 (and .def_179 .def_189)))
(let ((.def_192 (and .def_190 .def_191)))
(let ((.def_193 (and .def_111 .def_192)))
(let ((.def_195 (and .def_193 .def_194)))
(let ((.def_196 (or .def_129 .def_195)))
(let ((.def_197 (or b.EVENT.1__AT0 .def_196)))
(let ((.def_121 (* (- 1.0) b.y__AT1)))
(let ((.def_79 (* b.speed_y__AT0 b.delta__AT0)))
(let ((.def_124 (+ .def_79 .def_121)))
(let ((.def_74 (* b.delta__AT0 b.delta__AT0)))
(let ((.def_78 (* .def_74 .def_77)))
(let ((.def_125 (+ .def_78 .def_124)))
(let ((.def_126 (+ b.y__AT0 .def_125)))
(let ((.def_127 (= .def_126 0.0 )))
(let ((.def_113 (* b.delta__AT0 .def_76)))
(let ((.def_116 (+ .def_113 .def_115)))
(let ((.def_117 (+ b.speed_y__AT0 .def_116)))
(let ((.def_118 (= .def_117 0.0 )))
(let ((.def_103 (* (- 1.0) b.x__AT1)))
(let ((.def_107 (+ .def_103 b.x__AT0)))
(let ((.def_101 (* b.delta__AT0 b.speed_x__AT0)))
(let ((.def_108 (+ .def_101 .def_107)))
(let ((.def_109 (= .def_108 0.0 )))
(let ((.def_112 (and .def_109 .def_111)))
(let ((.def_119 (and .def_112 .def_118)))
(let ((.def_128 (and .def_119 .def_127)))
(let ((.def_131 (or .def_128 .def_130)))
(let ((.def_198 (and .def_131 .def_197)))
(let ((.def_203 (and .def_198 .def_202)))
(let ((.def_224 (and .def_203 .def_223)))
(let ((.def_233 (and .def_224 .def_232)))
(let ((.def_236 (and .def_233 .def_235)))
(let ((.def_240 (and .def_236 .def_239)))
(let ((.def_241 (and .def_49 .def_240)))
(let ((.def_258 (and .def_241 .def_257)))
(let ((.def_262 (and .def_258 .def_261)))
(let ((.def_92 (* b.delta__AT0 .def_91)))
(let ((.def_93 (<= b.speed_y__AT0 .def_92)))
(let ((.def_90 (<= b.speed_y__AT0 0.0 )))
(let ((.def_94 (and .def_90 .def_93)))
(let ((.def_86 (* b.delta__AT0 .def_85)))
(let ((.def_87 (+ b.speed_y__AT0 .def_86)))
(let ((.def_88 (<= 0.0 .def_87)))
(let ((.def_89 (and .def_84 .def_88)))
(let ((.def_95 (or .def_89 .def_94)))
(let ((.def_80 (+ .def_78 .def_79)))
(let ((.def_81 (+ b.y__AT0 .def_80)))
(let ((.def_82 (<= 0.0 .def_81)))
(let ((.def_68 (<= 0.0 b.y__AT0)))
(let ((.def_83 (and .def_68 .def_82)))
(let ((.def_96 (and .def_83 .def_95)))
(let ((.def_97 (and .def_58 .def_96)))
(let ((.def_98 (and .def_66 .def_97)))
(let ((.def_69 (and .def_67 .def_68)))
(let ((.def_52 (or .def_49 .def_51)))
(let ((.def_42 (or .def_30 .def_32)))
(let ((.def_46 (or b.counter.3__AT0 .def_42)))
(let ((.def_43 (or b.counter.2__AT0 .def_42)))
(let ((.def_41 (or .def_32 .def_35)))
(let ((.def_44 (and .def_41 .def_43)))
(let ((.def_45 (or .def_38 .def_44)))
(let ((.def_47 (and .def_45 .def_46)))
(let ((.def_53 (and .def_47 .def_52)))
(let ((.def_70 (and .def_53 .def_69)))
(let ((.def_39 (and .def_36 .def_38)))
(let ((.def_27 (= b.speed_y__AT0 0.0 )))
(let ((.def_24 (= b.y__AT0 10.0 )))
(let ((.def_19 (= b.time__AT0 0.0 )))
(let ((.def_21 (and .def_19 b.event_is_timed__AT0)))
(let ((.def_25 (and .def_21 .def_24)))
(let ((.def_28 (and .def_25 .def_27)))
(let ((.def_40 (and .def_28 .def_39)))
(let ((.def_71 (and .def_40 .def_70)))
(let ((.def_7 (and .def_4 .def_6)))
(let ((.def_14 (or .def_7 b.counter.3__AT2)))
(let ((.def_10 (and .def_7 .def_9)))
(let ((.def_13 (or .def_10 .def_12)))
(let ((.def_15 (and .def_13 .def_14)))
(let ((.def_16 (not .def_15)))
(let ((.def_72 (and .def_16 .def_71)))
(let ((.def_99 (and .def_72 .def_98)))
(let ((.def_263 (and .def_99 .def_262)))
(let ((.def_285 (and .def_263 .def_284)))
(let ((.def_437 (and .def_285 .def_436)))
(let ((.def_459 (and .def_437 .def_458)))
.def_459))))))))))))))))))))))))))))))))))))))))))))))))))))))))))))))))))))))))))))))))))))))))))))))))))))))))))))))))))))))))))))))))))))))))))))))))))))))))))))))))))))))))))))))))))))))))))))))))))))))))))))))))))))))))))))))))))))))))))))))))))))))))))))))))))))))))))))))))))))))))))))))))))))))))))))))))))))))))))))))))))))))))))))))))))))))))))))))))))))))))))))))))))))))))))))))))))))))))))))))
(check-sat)
(exit)
